(set-logic HORN)
(declare-fun assign_275_35_8_abs0 (Int Int Int Int Int) Bool)
(declare-fun assert_266_34_8_abs0 (Int Int Int Int Int) Bool)
(declare-fun assert_249_33_8_abs0 (Int Int Int Int Int) Bool)
(declare-fun while_278_31_6_abs0 (Int Int Int Int Int) Bool)
(declare-fun assign_206_30_6_abs0 (Int Int Int Int Int) Bool)
(declare-fun assign_197_26_8_abs0 (Int Int Int Int Int) Bool)
(declare-fun arrayassign_188_25_8_abs0 (Int Int Int Int Int) Bool)
(declare-fun assert_171_24_8_abs0 (Int Int Int Int Int) Bool)
(declare-fun while_200_22_6_abs0 (Int Int Int Int Int) Bool)
(declare-fun assign_128_21_6_abs0 (Int Int Int Int Int) Bool)
(declare-fun assign_119_17_8_abs0 (Int Int Int Int Int) Bool)
(declare-fun arrayassign_110_16_8_abs0 (Int Int Int Int Int) Bool)
(declare-fun assign_97_15_8_abs0 (Int Int Int Int Int) Bool)
(declare-fun assert_85_14_8_abs0 (Int Int Int Int Int) Bool)
(declare-fun while_122_12_6_abs0 (Int Int Int Int Int) Bool)
(declare-fun assign_42_11_6_abs0 (Int Int Int Int Int) Bool)
(declare-fun assign_36_8_6_abs0 (Int Int Int Int Int) Bool)
(declare-fun end_abs0 (Int Int Int Int Int) Bool)
(declare-fun start_abs0 (Int Int Int Int Int) Bool)
(assert (forall ((a (Array Int Int)) (v Int) (N Int) (i Int) (vabs_f_f Int)) (start_abs0 vabs_f_f (select a vabs_f_f) v N i)))
(assert (forall ((i Int) (N Int) (v Int) (a (Array Int Int)) (vabs_0_f_f Int)) (=> (start_abs0 vabs_0_f_f (select a vabs_0_f_f) v N i) (assign_36_8_6_abs0 vabs_0_f_f (select a vabs_0_f_f) v N i))))
(assert (forall ((rnd Int) (i Int) (N Int) (v Int) (a (Array Int Int)) (vabs_0_f_f Int)) (=> (assign_36_8_6_abs0 vabs_0_f_f (select a vabs_0_f_f) v N i) (assign_42_11_6_abs0 vabs_0_f_f (select a vabs_0_f_f) v rnd i))))
(assert (forall ((i Int) (N Int) (v Int) (a (Array Int Int)) (vabs_0_f_f Int)) (=> (assign_42_11_6_abs0 vabs_0_f_f (select a vabs_0_f_f) v N i) (while_122_12_6_abs0 vabs_0_f_f (select a vabs_0_f_f) v N 0))))
(assert (forall ((a (Array Int Int)) (v Int) (N Int) (i Int) (vabs_0_f_f Int)) (=> (and (while_122_12_6_abs0 vabs_0_f_f (select a vabs_0_f_f) v N i) (< i N)) (assert_85_14_8_abs0 vabs_0_f_f (select a vabs_0_f_f) v N i))))
(assert (forall ((a (Array Int Int)) (v Int) (N Int) (i Int) (vabs_0_f_f Int)) (=> (and (while_122_12_6_abs0 vabs_0_f_f (select a vabs_0_f_f) v N i) (not (< i N))) (assign_128_21_6_abs0 vabs_0_f_f (select a vabs_0_f_f) v N i))))
(assert (forall ((k Int) (i Int) (N Int) (v Int) (a (Array Int Int))) (=> (and (assert_85_14_8_abs0 k (select a k) v N i) (<= 0 k) (< k i)) (= (mod (select a k) 2) 0))))
(assert (forall ((i Int) (N Int) (v Int) (a (Array Int Int)) (vabs_0_f_f Int)) (=> (assert_85_14_8_abs0 vabs_0_f_f (select a vabs_0_f_f) v N i) (assign_97_15_8_abs0 vabs_0_f_f (select a vabs_0_f_f) v N i))))
(assert (forall ((rnd Int) (i Int) (N Int) (v Int) (a (Array Int Int)) (vabs_0_f_f Int)) (=> (assign_97_15_8_abs0 vabs_0_f_f (select a vabs_0_f_f) v N i) (arrayassign_110_16_8_abs0 vabs_0_f_f (select a vabs_0_f_f) rnd N i))))
(assert (forall ((i Int) (N Int) (v Int) (a (Array Int Int)) (vabs_0_f_f Int)) (=> (arrayassign_110_16_8_abs0 vabs_0_f_f (select a vabs_0_f_f) v N i) (assign_119_17_8_abs0 vabs_0_f_f (select (store a i (* v 2)) vabs_0_f_f) v N i))))
(assert (forall ((i Int) (N Int) (v Int) (a (Array Int Int)) (vabs_0_f_f Int)) (=> (assign_119_17_8_abs0 vabs_0_f_f (select a vabs_0_f_f) v N i) (while_122_12_6_abs0 vabs_0_f_f (select a vabs_0_f_f) v N (+ i 1)))))
(assert (forall ((i Int) (N Int) (v Int) (a (Array Int Int)) (vabs_0_f_f Int)) (=> (assign_128_21_6_abs0 vabs_0_f_f (select a vabs_0_f_f) v N i) (while_200_22_6_abs0 vabs_0_f_f (select a vabs_0_f_f) v N 0))))
(assert (forall ((a (Array Int Int)) (v Int) (N Int) (i Int) (vabs_0_f_f Int)) (=> (and (while_200_22_6_abs0 vabs_0_f_f (select a vabs_0_f_f) v N i) (< i N)) (assert_171_24_8_abs0 vabs_0_f_f (select a vabs_0_f_f) v N i))))
(assert (forall ((a (Array Int Int)) (v Int) (N Int) (i Int) (vabs_0_f_f Int)) (=> (and (while_200_22_6_abs0 vabs_0_f_f (select a vabs_0_f_f) v N i) (not (< i N))) (assign_206_30_6_abs0 vabs_0_f_f (select a vabs_0_f_f) v N i))))
(assert (forall ((k Int) (i Int) (N Int) (v Int) (a (Array Int Int))) (=> (and (assert_171_24_8_abs0 k (select a k) v N i) (<= 0 k) (< k i)) (= (mod (select a k) 2) 1))))
(assert (forall ((i Int) (N Int) (v Int) (a (Array Int Int)) (vabs_0_f_f Int)) (=> (assert_171_24_8_abs0 vabs_0_f_f (select a vabs_0_f_f) v N i) (arrayassign_188_25_8_abs0 vabs_0_f_f (select a vabs_0_f_f) v N i))))
(assert (forall ((i Int) (N Int) (v Int) (a (Array Int Int)) (vabs_0_f_f Int)) (=> (and (arrayassign_188_25_8_abs0 vabs_0_f_f (select a vabs_0_f_f) v N i) (arrayassign_188_25_8_abs0 i (select a i) v N i)) (assign_197_26_8_abs0 vabs_0_f_f (select (store a i (+ (select a i) 1)) vabs_0_f_f) v N i))))
(assert (forall ((i Int) (N Int) (v Int) (a (Array Int Int)) (vabs_0_f_f Int)) (=> (assign_197_26_8_abs0 vabs_0_f_f (select a vabs_0_f_f) v N i) (while_200_22_6_abs0 vabs_0_f_f (select a vabs_0_f_f) v N (+ i 1)))))
(assert (forall ((i Int) (N Int) (v Int) (a (Array Int Int)) (vabs_0_f_f Int)) (=> (assign_206_30_6_abs0 vabs_0_f_f (select a vabs_0_f_f) v N i) (while_278_31_6_abs0 vabs_0_f_f (select a vabs_0_f_f) v N 0))))
(assert (forall ((a (Array Int Int)) (v Int) (N Int) (i Int) (vabs_0_f_f Int)) (=> (and (while_278_31_6_abs0 vabs_0_f_f (select a vabs_0_f_f) v N i) (< i N)) (assert_249_33_8_abs0 vabs_0_f_f (select a vabs_0_f_f) v N i))))
(assert (forall ((a (Array Int Int)) (v Int) (N Int) (i Int) (vabs_0_f_f Int)) (=> (and (while_278_31_6_abs0 vabs_0_f_f (select a vabs_0_f_f) v N i) (not (< i N))) (end_abs0 vabs_0_f_f (select a vabs_0_f_f) v N i))))
(assert (forall ((k Int) (i Int) (N Int) (v Int) (a (Array Int Int))) (=> (and (assert_249_33_8_abs0 k (select a k) v N i) (<= 0 k) (< k N)) (= (mod (select a k) 2) 1))))
(assert (forall ((i Int) (N Int) (v Int) (a (Array Int Int)) (vabs_0_f_f Int)) (=> (assert_249_33_8_abs0 vabs_0_f_f (select a vabs_0_f_f) v N i) (assert_266_34_8_abs0 vabs_0_f_f (select a vabs_0_f_f) v N i))))
(assert (forall ((i Int) (N Int) (v Int) (a (Array Int Int))) (=> (assert_266_34_8_abs0 i (select a i) v N i) (= (mod (select a i) 2) 1))))
(assert (forall ((i Int) (N Int) (v Int) (a (Array Int Int)) (vabs_0_f_f Int)) (=> (assert_266_34_8_abs0 vabs_0_f_f (select a vabs_0_f_f) v N i) (assign_275_35_8_abs0 vabs_0_f_f (select a vabs_0_f_f) v N i))))
(assert (forall ((i Int) (N Int) (v Int) (a (Array Int Int)) (vabs_0_f_f Int)) (=> (assign_275_35_8_abs0 vabs_0_f_f (select a vabs_0_f_f) v N i) (while_278_31_6_abs0 vabs_0_f_f (select a vabs_0_f_f) v N (+ i 1)))))
(check-sat)